This is Ipopt version 3.10.0, running with linear solver ma27.

Number of nonzeros in equality constraint Jacobian...:        0
Number of nonzeros in inequality constraint Jacobian.:       48
Number of nonzeros in Lagrangian Hessian.............:        0

Total number of variables............................:        6
                     variables with only lower bounds:        0
                variables with lower and upper bounds:        6
                     variables with only upper bounds:        0
Total number of equality constraints.................:        0
Total number of inequality constraints...............:        8
        inequality constraints with only lower bounds:        0
   inequality constraints with lower and upper bounds:        0
        inequality constraints with only upper bounds:        8

iter    objective    inf_pr   inf_du lg(mu)  ||d||  lg(rg) alpha_du alpha_pr  ls
   0  7.6646592e+00 2.46e+00 1.15e+00   0.0 0.00e+00    -  0.00e+00 0.00e+00   0
   1  9.2700196e+00 1.59e+00 1.01e+01  -0.5 1.48e+00    -  5.21e-01 4.91e-01f  1
   2  9.8668211e+00 7.41e-01 6.04e+00  -0.5 9.33e-01    -  9.76e-01 5.77e-01h  1
   3  1.5178415e+01 3.46e-01 3.69e+01  -0.2 1.71e+00    -  7.70e-01 8.59e-01h  1
   4  1.4533841e+01 2.15e-01 6.59e+00  -0.0 9.15e-01    -  5.66e-01 6.78e-01f  1
   5  1.5252857e+01 1.12e-01 6.26e+00  -0.8 3.74e-01    -  9.92e-01 5.73e-01h  1
   6  1.5519749e+01 8.84e-02 1.32e+01  -2.2 2.22e-01    -  9.95e-01 2.14e-01h  1
   7  1.6270950e+01 4.37e-02 1.84e+01  -2.4 3.77e-01    -  1.00e+00 4.89e-01h  1
   8  1.7281958e+01 0.00e+00 3.13e+00  -3.2 3.58e-01    -  1.00e+00 1.00e+00h  1
   9  1.6995107e+01 1.27e-03 2.47e+00  -2.0 2.28e-01    -  1.00e+00 1.00e+00f  1
iter    objective    inf_pr   inf_du lg(mu)  ||d||  lg(rg) alpha_du alpha_pr  ls
  10  1.6925158e+01 1.64e-03 3.64e-01  -3.1 1.32e-01    -  1.00e+00 7.85e-01h  1
  11  1.6957446e+01 1.02e-03 5.05e-02  -4.6 4.86e-02    -  1.00e+00 9.50e-01h  1
  12  1.6984481e+01 1.22e-03 1.10e-01  -5.9 1.49e-02    -  1.00e+00 1.00e+00h  1
  13  1.6973408e+01 0.00e+00 1.32e-01  -6.8 1.61e-03    -  1.00e+00 1.00e+00h  1
  14  1.6970065e+01 3.36e-04 1.88e-02  -8.5 2.20e-03    -  1.00e+00 1.00e+00h  1
  15  1.6966659e+01 4.09e-04 9.56e-02 -10.1 2.51e-03    -  1.00e+00 1.00e+00h  1
  16  1.6967530e+01 2.03e-04 8.21e-03 -11.0 9.68e-04    -  1.00e+00 5.00e-01h  2

Number of Iterations....: 16

                                   (scaled)                 (unscaled)
Objective...............:   1.6967529702049728e+01    1.6967529702049728e+01
Dual infeasibility......:   8.2148799787304938e-03    8.2148799787304938e-03
Constraint violation....:   2.0271355972425494e-04    2.0271355972425494e-04
Complementarity.........:   4.5305929935558319e-11    4.5305929935558319e-11
Overall NLP error.......:   8.2148799787304938e-03    8.2148799787304938e-03


Number of objective function evaluations             = 20
Number of objective gradient evaluations             = 17
Number of equality constraint evaluations            = 0
Number of inequality constraint evaluations          = 20
Number of equality constraint Jacobian evaluations   = 0
Number of inequality constraint Jacobian evaluations = 17
Number of Lagrangian Hessian evaluations             = 0
Total CPU secs in IPOPT (w/o function evaluations)   =      0.019
Total CPU secs in NLP function evaluations           =    156.737

EXIT: Stopping optimization at current point as requested by user.
